NAME          DCAP_3_3_2_300_SS260
ROWS
 N  OBJ
 L  CON1
 L  CON2
 L  CON3
 L  CON4
 L  CON5
 L  CON6
 L  CON7
 L  CON8
 L  CON9
 L  CON10
 L  CON11
 L  CON12
 E  CON13
 E  CON14
 E  CON15
 E  CON16
 E  CON17
 E  CON18
COLUMNS
    x[1,1]    OBJ       6.180167      CON1      1.000000    
    x[1,1]    CON7      -1.000000     CON8      -1.000000   
    x[1,2]    OBJ       5.039546      CON2      1.000000    
    x[1,2]    CON8      -1.000000   
    x[2,1]    OBJ       6.732585      CON3      1.000000    
    x[2,1]    CON9      -1.000000     CON10     -1.000000   
    x[2,2]    OBJ       7.443064      CON4      1.000000    
    x[2,2]    CON10     -1.000000   
    x[3,1]    OBJ       6.563535      CON5      1.000000    
    x[3,1]    CON11     -1.000000     CON12     -1.000000   
    x[3,2]    OBJ       6.054841      CON6      1.000000    
    x[3,2]    CON12     -1.000000   
    MARKER    'MARKER'                'INTORG'
    u[1,1]    OBJ       48.076654     CON1      -1.000000   
    u[1,2]    OBJ       49.466655     CON2      -1.000000   
    u[2,1]    OBJ       49.996186     CON3      -1.000000   
    u[2,2]    OBJ       32.230043     CON4      -1.000000   
    u[3,1]    OBJ       20.066487     CON5      -1.000000   
    u[3,2]    OBJ       27.484319     CON6      -1.000000   
    y[1,1,1]  OBJ       8.035045      CON7      0.610703    
    y[1,1,1]  CON13     1.000000    
    y[1,1,2]  OBJ       5.454126      CON8      1.457769    
    y[1,1,2]  CON14     1.000000    
    y[1,2,1]  OBJ       6.035263      CON7      0.517591    
    y[1,2,1]  CON15     1.000000    
    y[1,2,2]  OBJ       9.998025      CON8      0.582919    
    y[1,2,2]  CON16     1.000000    
    y[1,3,1]  OBJ       9.793823      CON7      0.713442    
    y[1,3,1]  CON17     1.000000    
    y[1,3,2]  OBJ       5.634952      CON8      1.384417    
    y[1,3,2]  CON18     1.000000    
    y[2,1,1]  OBJ       8.939435      CON9      0.610703    
    y[2,1,1]  CON13     1.000000    
    y[2,1,2]  OBJ       8.133436      CON10     1.457769    
    y[2,1,2]  CON14     1.000000    
    y[2,2,1]  OBJ       7.414155      CON9      0.517591    
    y[2,2,1]  CON15     1.000000    
    y[2,2,2]  OBJ       7.231800      CON10     0.582919    
    y[2,2,2]  CON16     1.000000    
    y[2,3,1]  OBJ       9.682324      CON9      0.713442    
    y[2,3,1]  CON17     1.000000    
    y[2,3,2]  OBJ       6.498173      CON10     1.384417    
    y[2,3,2]  CON18     1.000000    
    y[3,1,1]  OBJ       6.161481      CON11     0.610703    
    y[3,1,1]  CON13     1.000000    
    y[3,1,2]  OBJ       6.706283      CON12     1.457769    
    y[3,1,2]  CON14     1.000000    
    y[3,2,1]  OBJ       6.357137      CON11     0.517591    
    y[3,2,1]  CON15     1.000000    
    y[3,2,2]  OBJ       7.094994      CON12     0.582919    
    y[3,2,2]  CON16     1.000000    
    y[3,3,1]  OBJ       7.015865      CON11     0.713442    
    y[3,3,1]  CON17     1.000000    
    y[3,3,2]  OBJ       5.123084      CON12     1.384417    
    y[3,3,2]  CON18     1.000000    
    z[1,1]    OBJ       732.569759    CON13     1.000000    
    z[1,2]    OBJ       527.864778    CON14     1.000000    
    z[2,1]    OBJ       736.186071    CON15     1.000000    
    z[2,2]    OBJ       603.615455    CON16     1.000000    
    z[3,1]    OBJ       865.993720    CON17     1.000000    
    z[3,2]    OBJ       546.758568    CON18     1.000000    
    MARKER    'MARKER'                 'INTEND'
RHS
    RHS       CON1      -0.000000     CON2      -0.000000   
    RHS       CON3      -0.000000     CON4      -0.000000   
    RHS       CON5      -0.000000     CON6      -0.000000   
    RHS       CON7      -0.000000     CON8      -0.000000   
    RHS       CON9      -0.000000     CON10     -0.000000   
    RHS       CON11     -0.000000     CON12     -0.000000   
    RHS       CON13     1.000000      CON14     1.000000    
    RHS       CON15     1.000000      CON16     1.000000    
    RHS       CON17     1.000000      CON18     1.000000    
BOUNDS
 BV BOUND     u[1,1]  
 BV BOUND     u[1,2]  
 BV BOUND     u[2,1]  
 BV BOUND     u[2,2]  
 BV BOUND     u[3,1]  
 BV BOUND     u[3,2]  
 BV BOUND     y[1,1,1]
 BV BOUND     y[1,1,2]
 BV BOUND     y[1,2,1]
 BV BOUND     y[1,2,2]
 BV BOUND     y[1,3,1]
 BV BOUND     y[1,3,2]
 BV BOUND     y[2,1,1]
 BV BOUND     y[2,1,2]
 BV BOUND     y[2,2,1]
 BV BOUND     y[2,2,2]
 BV BOUND     y[2,3,1]
 BV BOUND     y[2,3,2]
 BV BOUND     y[3,1,1]
 BV BOUND     y[3,1,2]
 BV BOUND     y[3,2,1]
 BV BOUND     y[3,2,2]
 BV BOUND     y[3,3,1]
 BV BOUND     y[3,3,2]
 BV BOUND     z[1,1]  
 BV BOUND     z[1,2]  
 BV BOUND     z[2,1]  
 BV BOUND     z[2,2]  
 BV BOUND     z[3,1]  
 BV BOUND     z[3,2]  
ENDATA
